Route_0
50	50
204	62
302	63
312	78
332	68
365	22
427	236
488	234
437	374
412	420
389	445
371	447
346	411
270	360
250	417
144	381
110	347
66	323
80	284
22	290
27	179
50	50
Route_1
50	50
221	173
261	230
220	239
161	257
134	193
52	102
50	75
50	75
50	75
50	75
50	75
50	75
50	75
50	75
50	75
50	75
50	75
50	75
50	75
50	50
